data;


param d:= 100;
param r:=5;
param p:=0.780000;
param M:=1000;
param U:=
         1         1        4.298316e-01
         2         1       -5.221738e-01
         3         1       -1.474383e-02
         4         1        6.771349e-01
         5         1       -7.891419e-02
         6         1        4.338288e-01
         7         1       -4.592504e-02
         8         1       -9.303328e-01
         9         1       -1.356949e+00
        10         1        5.273324e-01
        11         1       -5.402615e-01
        12         1        1.509949e-01
        13         1        9.261935e-02
        14         1        2.843287e-01
        15         1       -1.236935e+00
        16         1        3.304293e-01
        17         1       -1.951060e+00
        18         1        7.173981e-01
        19         1        3.033166e-01
        20         1       -1.484510e+00
        21         1        6.375484e-01
        22         1       -3.275255e-01
        23         1        1.309606e+00
        24         1        8.450141e-01
        25         1        7.595448e-02
        26         1        2.085134e+00
        27         1       -4.530932e-01
        28         1       -3.296132e-02
        29         1       -6.816051e-01
        30         1        9.463249e-01
        31         1        3.768375e-01
        32         1       -4.844301e-01
        33         1        7.313346e-02
        34         1        4.242110e-01
        35         1        8.945440e-01
        36         1       -3.758304e-01
        37         1        8.220768e-01
        38         1        1.012699e+00
        39         1        7.866266e-01
        40         1        4.046850e-01
        41         1        1.032085e+00
        42         1        1.105177e-01
        43         1        6.381421e-01
        44         1       -1.659015e+00
        45         1        1.744269e+00
        46         1       -5.944829e-01
        47         1       -4.295625e-01
        48         1        6.445873e-02
        49         1        1.328080e+00
        50         1       -2.388901e-01
        51         1       -5.601284e-01
        52         1        9.863260e-01
        53         1       -1.260314e+00
        54         1       -1.835394e+00
        55         1       -3.109848e-01
        56         1       -8.316734e-01
        57         1       -1.263591e+00
        58         1        3.533676e-01
        59         1       -1.693406e+00
        60         1        4.109505e-01
        61         1       -2.223548e+00
        62         1       -1.525176e+00
        63         1       -8.661495e-01
        64         1        1.233612e+00
        65         1       -1.663175e+00
        66         1       -9.165104e-01
        67         1       -1.050395e+00
        68         1        1.480633e+00
        69         1       -2.132947e+00
        70         1        1.062384e+00
        71         1        3.013923e-01
        72         1        6.722497e-01
        73         1        1.439231e+00
        74         1        6.888103e-01
        75         1       -4.994025e-01
        76         1       -1.422921e+00
        77         1        1.214040e-01
        78         1       -3.289808e-01
        79         1       -3.795283e-01
        80         1       -4.725768e-01
        81         1        7.460929e-01
        82         1       -7.131265e-01
        83         1       -2.251633e-01
        84         1       -2.139027e+00
        85         1       -1.628894e+00
        86         1        2.188731e+00
        87         1       -2.603297e-01
        88         1       -1.407665e-01
        89         1        2.786840e+00
        90         1        4.834094e-01
        91         1        3.395116e-01
        92         1       -3.733922e-01
        93         1        1.406450e+00
        94         1        2.235906e-01
        95         1        4.471126e-01
        96         1        9.218510e-01
        97         1       -6.960324e-01
        98         1        1.113298e-01
        99         1        4.005565e-01
       100         1       -6.188133e-01
         1         2       -9.393697e-02
         2         2       -3.249080e-01
         3         2        4.514762e-01
         4         2        1.374739e+00
         5         2        3.395006e-02
         6         2       -2.223815e+00
         7         2       -1.005606e+00
         8         2       -2.306075e-01
         9         2       -1.853272e-02
        10         2       -1.560927e+00
        11         2       -1.568600e+00
        12         2       -2.693761e-01
        13         2        2.914214e-01
        14         2       -3.914977e-01
        15         2       -3.780116e-01
        16         2       -4.971059e-02
        17         2       -7.156194e-01
        18         2       -1.049979e+00
        19         2       -1.360118e-01
        20         2       -1.504310e+00
        21         2        3.582951e-01
        22         2        2.336407e-01
        23         2       -1.044670e+00
        24         2        2.423779e-01
        25         2        1.846255e-01
        26         2        5.208270e-01
        27         2        2.301601e+00
        28         2       -6.993569e-01
        29         2        9.791690e-01
        30         2       -9.787076e-01
        31         2       -1.611175e-01
        32         2       -4.653798e-01
        33         2        1.353436e+00
        34         2       -1.139068e+00
        35         2        1.293206e-01
        36         2        5.380529e-01
        37         2       -1.008107e+00
        38         2       -1.963269e+00
        39         2       -1.335971e+00
        40         2        1.079224e+00
        41         2        5.028752e-01
        42         2       -2.617538e-01
        43         2       -7.509506e-01
        44         2       -1.271668e+00
        45         2        6.266526e-01
        46         2       -6.641264e-01
        47         2       -1.480642e+00
        48         2       -8.132148e-02
        49         2        5.329845e-01
        50         2       -4.841107e-02
        51         2       -8.958799e-01
        52         2        5.080422e-01
        53         2        8.500445e-01
        54         2       -1.458784e+00
        55         2       -7.090878e-01
        56         2       -6.975469e-01
        57         2        6.505499e-01
        58         2        6.009058e-01
        59         2       -1.060340e+00
        60         2        1.038672e+00
        61         2       -5.889765e-01
        62         2       -1.055908e+00
        63         2        3.713860e-01
        64         2       -2.347048e-01
        65         2       -5.753645e-01
        66         2        1.982415e+00
        67         2        7.047150e-01
        68         2        2.077598e-02
        69         2        1.138134e+00
        70         2        1.113701e-01
        71         2       -8.703000e-01
        72         2        5.579814e-01
        73         2        1.168356e+00
        74         2       -2.341110e+00
        75         2       -1.722846e+00
        76         2        2.176646e-01
        77         2       -7.020897e-02
        78         2        6.012978e-01
        79         2       -1.537567e-02
        80         2        1.324835e+00
        81         2        5.742420e-01
        82         2        3.671949e-01
        83         2        3.411916e-01
        84         2        1.604808e+00
        85         2        1.334642e+00
        86         2        4.339819e-01
        87         2        1.414706e+00
        88         2       -7.539693e-01
        89         2       -1.964898e+00
        90         2        1.292329e+00
        91         2        5.976180e-01
        92         2       -1.867756e+00
        93         2        9.655930e-01
        94         2       -1.070117e+00
        95         2        2.902757e-01
        96         2       -1.225326e+00
        97         2       -5.726430e-01
        98         2        9.369067e-01
        99         2       -7.429202e-01
       100         2       -3.376913e-01
         1         3       -2.330479e-02
         2         3       -1.980130e+00
         3         3       -1.026014e-02
         4         3        3.516406e-01
         5         3        7.576433e-01
         6         3        6.139554e-01
         7         3       -1.003231e+00
         8         3        1.810014e-02
         9         3        2.007840e-02
        10         3       -7.128781e-01
        11         3        5.772867e-01
        12         3       -1.693612e+00
        13         3       -1.964969e-01
        14         3        4.760325e-01
        15         3       -1.635223e+00
        16         3        3.053750e-01
        17         3       -9.009143e-01
        18         3       -7.631728e-01
        19         3       -1.545926e+00
        20         3       -1.368763e+00
        21         3       -3.156960e-01
        22         3        1.329675e+00
        23         3       -1.190615e+00
        24         3       -1.178190e-01
        25         3        5.259142e-01
        26         3        3.375546e-01
        27         3        4.249431e-01
        28         3       -4.879523e-01
        29         3        1.015155e+00
        30         3        6.223433e-01
        31         3        2.857069e-01
        32         3       -1.800428e+00
        33         3        3.131898e-01
        34         3        5.420957e-01
        35         3        1.280815e+00
        36         3       -3.777833e-01
        37         3       -1.994807e+00
        38         3       -1.430441e+00
        39         3        1.933161e-01
        40         3        1.042859e+00
        41         3        7.547652e-01
        42         3        7.189056e-03
        43         3        1.223642e+00
        44         3        3.524924e-01
        45         3        1.305372e+00
        46         3        2.640145e+00
        47         3        1.491589e-01
        48         3       -4.784732e-01
        49         3        6.243494e-01
        50         3        2.346764e-01
        51         3        8.977148e-01
        52         3        6.017957e-01
        53         3        9.835438e-01
        54         3       -2.183083e-01
        55         3       -1.742182e-01
        56         3        1.550625e+00
        57         3       -1.223964e+00
        58         3       -9.042732e-01
        59         3       -1.738024e+00
        60         3        1.726992e+00
        61         3        6.640047e-01
        62         3        1.350359e+00
        63         3        1.644478e+00
        64         3       -5.946299e-01
        65         3        1.768744e+00
        66         3       -5.037401e-01
        67         3        6.878233e-01
        68         3        9.529824e-01
        69         3        2.973302e-01
        70         3       -2.892893e-01
        71         3        2.775440e-01
        72         3       -2.011781e+00
        73         3       -1.065474e+00
        74         3       -5.275707e-01
        75         3       -9.141080e-01
        76         3        5.276454e-01
        77         3       -1.011171e+00
        78         3       -2.819490e+00
        79         3       -4.381302e-02
        80         3        7.462379e-01
        81         3        7.043942e-01
        82         3       -3.972079e-01
        83         3       -1.236958e+00
        84         3        1.906767e+00
        85         3       -8.710337e-01
        86         3        1.415780e+00
        87         3       -2.018335e+00
        88         3       -1.685868e+00
        89         3       -3.753020e-01
        90         3        1.813982e+00
        91         3        6.070138e-01
        92         3        6.523080e-02
        93         3        1.174750e+00
        94         3       -1.623261e+00
        95         3        5.246665e-01
        96         3       -1.002546e+00
        97         3       -3.741451e-01
        98         3       -2.109633e-01
        99         3       -3.132137e+00
       100         3        7.899767e-01
         1         4       -2.844036e-01
         2         4       -1.194815e+00
         3         4       -2.096918e-01
         4         4       -8.610609e-01
         5         4        7.704304e-01
         6         4        1.567956e+00
         7         4        7.233274e-01
         8         4        1.163121e-01
         9         4        7.897149e-01
        10         4       -1.856843e-01
        11         4       -1.482025e+00
        12         4        2.549601e-01
        13         4        4.521206e-01
        14         4        1.731355e+00
        15         4       -2.911963e-01
        16         4       -6.305524e-01
        17         4        1.454322e+00
        18         4        7.092977e-01
        19         4       -1.631872e+00
        20         4        5.491232e-01
        21         4        3.271612e-01
        22         4        8.351854e-02
        23         4       -6.843358e-01
        24         4        4.386841e-01
        25         4       -4.251586e-01
        26         4        2.535827e-01
        27         4       -8.757304e-01
        28         4        3.329260e+00
        29         4        1.026050e+00
        30         4        1.017981e+00
        31         4        3.976519e-02
        32         4       -1.040099e+00
        33         4        3.661866e-01
        34         4       -8.160003e-01
        35         4       -1.277980e+00
        36         4        3.721797e-01
        37         4       -5.544227e-01
        38         4       -3.642198e-02
        39         4        6.251009e-01
        40         4        3.835397e-01
        41         4        1.885584e+00
        42         4        1.941250e-01
        43         4        3.632177e-01
        44         4       -1.450116e+00
        45         4        5.674448e-01
        46         4       -3.412371e-01
        47         4        6.091705e-01
        48         4       -1.951627e+00
        49         4        2.743112e+00
        50         4        8.355444e-01
        51         4        7.239589e-01
        52         4       -1.271650e+00
        53         4        5.426778e-01
        54         4        1.939024e-01
        55         4        1.084186e+00
        56         4       -1.088504e+00
        57         4        2.820804e-01
        58         4        3.251145e-01
        59         4        6.307580e-01
        60         4        3.344954e-01
        61         4       -8.668716e-01
        62         4        1.711857e-01
        63         4        1.090499e+00
        64         4        1.207989e-01
        65         4       -1.476369e+00
        66         4       -1.094043e+00
        67         4       -1.497833e+00
        68         4        1.532538e-01
        69         4        3.907688e-01
        70         4        1.886600e+00
        71         4       -5.380816e-01
        72         4        4.669846e-01
        73         4       -1.703370e+00
        74         4        8.405937e-01
        75         4        1.075343e+00
        76         4       -9.710201e-01
        77         4       -4.755534e-01
        78         4        9.040177e-01
        79         4       -1.602443e+00
        80         4        2.903733e+00
        81         4        7.693283e-01
        82         4       -5.778689e-01
        83         4       -1.701333e-01
        84         4        1.221452e+00
        85         4        5.716328e-01
        86         4        5.275150e-01
        87         4       -6.723856e-01
        88         4        7.465062e-01
        89         4        1.120088e+00
        90         4       -5.779217e-01
        91         4       -1.117742e+00
        92         4        1.866503e-01
        93         4        7.959180e-01
        94         4        1.310667e+00
        95         4       -4.735233e-01
        96         4        5.407805e-01
        97         4       -1.079730e+00
        98         4       -8.432670e-01
        99         4       -7.907499e-01
       100         4        5.854988e-01
         1         5        9.834995e-01
         2         5       -4.639988e-01
         3         5        2.190349e-01
         4         5        4.483991e-01
         5         5       -4.160106e-01
         6         5        7.103763e-01
         7         5        1.040982e+00
         8         5       -1.316253e+00
         9         5       -1.344731e-01
        10         5        3.966787e-01
        11         5       -2.679898e+00
        12         5        1.331566e-01
        13         5        3.793041e-01
        14         5       -1.198555e+00
        15         5        6.259314e-01
        16         5        5.302249e-01
        17         5        2.060778e-01
        18         5        6.211920e-01
        19         5       -5.518623e-01
        20         5        8.154535e-01
        21         5       -1.101754e+00
        22         5       -6.165659e-01
        23         5        8.085966e-01
        24         5        9.246062e-01
        25         5       -1.526061e-01
        26         5        7.184356e-01
        27         5        1.867451e+00
        28         5       -7.228384e-01
        29         5       -1.464109e-01
        30         5       -1.379016e+00
        31         5       -2.223914e-01
        32         5        4.393754e-01
        33         5       -1.093435e+00
        34         5       -1.744917e-02
        35         5       -1.198326e-01
        36         5        3.272819e-01
        37         5       -1.167861e+00
        38         5        1.048058e+00
        39         5        7.164599e-01
        40         5       -4.853850e-01
        41         5        1.047666e-01
        42         5       -9.086406e-01
        43         5       -1.066416e-01
        44         5        8.447018e-01
        45         5       -1.426084e+00
        46         5        8.283290e-01
        47         5        9.656515e-02
        48         5        3.441430e-01
        49         5        9.954306e-01
        50         5        8.018072e-01
        51         5        1.114114e+00
        52         5        2.320155e+00
        53         5        1.471070e+00
        54         5       -7.264230e-01
        55         5       -2.994894e-01
        56         5        1.353369e+00
        57         5        4.776229e-01
        58         5        9.912776e-01
        59         5       -2.021011e+00
        60         5        1.206499e+00
        61         5       -4.362483e-01
        62         5       -6.422182e-01
        63         5       -1.381298e+00
        64         5        1.228422e+00
        65         5       -2.690897e-02
        66         5        7.441405e-01
        67         5        7.967564e-01
        68         5       -4.229088e-01
        69         5        8.763129e-01
        70         5        1.998193e+00
        71         5       -6.787535e-01
        72         5       -1.457966e-01
        73         5        1.037817e-02
        74         5        7.911737e-01
        75         5       -1.948540e-01
        76         5        1.201317e-01
        77         5       -1.590351e+00
        78         5        4.104648e-04
        79         5       -8.306753e-01
        80         5        2.837610e-01
        81         5       -1.006019e+00
        82         5       -1.260846e+00
        83         5       -1.584922e+00
        84         5        1.102133e+00
        85         5        2.428677e-02
        86         5        6.319444e-01
        87         5       -3.322175e-01
        88         5        1.782197e+00
        89         5       -4.016967e-01
        90         5        3.435407e-01
        91         5        1.672678e+00
        92         5        9.153268e-01
        93         5       -3.630496e-01
        94         5        3.012741e-01
        95         5        1.467681e-01
        96         5       -4.497325e-01
        97         5        4.402999e-01
        98         5        7.843761e-02
        99         5       -5.927646e-01
       100         5       -1.809202e-01
;

param theta:=
    1        5.412798e-01
    2        9.720271e-01
    3       -4.347658e-01
    4        8.385235e-01
    5        3.604441e-01
;
param X_true:=
    1        2.674995e-01
    2       -9.066953e-01
    3        3.384457e-01
    4        9.895250e-01
    5        1.569638e-01
    6       -6.228933e-01
    7        4.155789e-01
    8       -1.112502e+00
    9       -1.475084e-01
   10       -9.346142e-01
   11       -4.276805e+00
   12        8.179998e-01
   13        9.346643e-01
   14        5.861622e-01
   15       -3.445885e-01
   16       -3.398485e-01
   17       -6.622166e-02
   18        5.181740e-01
   19       -8.631913e-01
   20       -9.162958e-01
   21        7.078300e-01
   22       -6.804803e-01
   23       -7.132311e-02
   24        1.445326e+00
   25       -4.195873e-01
   26        1.959733e+00
   27        1.746009e+00
   28        2.045630e+00
   29        9.490790e-01
   30       -3.531343e-01
   31       -1.236673e-01
   32       -6.455869e-01
   33        1.131932e+00
   34       -1.803798e+00
   35       -1.061762e+00
   36        9.138682e-01
   37       -5.535055e-01
   38       -3.910645e-01
   39       -1.744569e-01
   40        9.613363e-01
   41        2.338178e+00
   42       -3.624722e-01
   43       -6.504005e-01
   44       -3.198828e+00
   45        9.475220e-01
   46       -2.102744e+00
   47       -1.190977e+00
   48       -1.348574e+00
   49        3.624454e+00
   50        7.112378e-01
   51       -5.556689e-01
   52        5.360463e-01
   53        7.017589e-01
   54       -2.415769e+00
   55        1.932794e-02
   56       -2.227283e+00
   57        8.892208e-01
   58        1.798431e+00
   59       -1.391209e+00
   60        1.196577e+00
   61       -2.948885e+00
   62       -2.526948e+00
   63       -4.062667e-01
   64        1.242185e+00
   65       -3.476172e+00
   66        1.000722e+00
   67       -1.151379e+00
   68        3.833792e-01
   69        4.660378e-01
   70        3.111270e+00
   71       -1.499331e+00
   72        2.119928e+00
   73        9.533563e-01
   74       -6.833817e-01
   75       -7.160806e-01
   76       -1.558947e+00
   77       -5.349041e-01
   78        2.390413e+00
   79       -1.844426e+00
   80        3.244669e+00
   81        9.382636e-01
   82       -7.954064e-01
   83        3.362187e-02
   84        9.945814e-01
   85        1.282398e+00
   86        1.661140e+00
   87        1.428168e+00
   88        1.192231e+00
   89        5.561251e-01
   90        3.684074e-01
   91        1.664164e-01
   92       -1.559544e+00
   93        1.725661e+00
   94        9.941980e-01
   95       -4.809689e-02
   96        3.515592e-02
   97       -1.517383e+00
   98        3.838521e-01
   99       -2.030044e-02
  100       -5.809081e-01
;
param X:=
    1       -1.366654e+00
    2       -1.098346e+00
    3       -2.316579e-01
    4        9.895250e-01
    5        1.569638e-01
    6       -1.433529e-01
    7       -9.351059e-01
    8        1.195674e+00
    9        1.624824e+00
   10       -1.520535e+00
   11        5.423345e-01
   12        1.330059e-01
   13       -8.035542e-01
   14       -1.338781e-01
   15       -1.002166e+00
   16       -1.710559e+00
   17       -2.187096e+00
   18        5.181740e-01
   19       -1.029917e+00
   20       -9.162958e-01
   21       -5.939327e-01
   22       -5.153603e-01
   23        4.853386e-01
   24       -1.762627e+00
   25       -1.155965e+00
   26       -5.482858e-02
   27       -5.868993e-01
   28        9.414618e-01
   29        9.490790e-01
   30        3.601293e-01
   31        7.404745e-01
   32        6.488790e-01
   33       -8.604305e-01
   34        4.375560e-01
   35       -5.497768e-01
   36        9.749536e-01
   37        1.215721e+00
   38       -3.007032e-01
   39       -1.802538e-01
   40        3.301172e-01
   41        2.338178e+00
   42        1.848762e+00
   43       -6.749909e-01
   44       -3.198828e+00
   45        1.489205e+00
   46       -1.483329e+00
   47       -9.236324e-01
   48       -1.348574e+00
   49        4.519624e-01
   50       -9.381583e-01
   51        8.522018e-01
   52        5.360463e-01
   53        7.017589e-01
   54       -2.415769e+00
   55       -3.597625e-01
   56       -2.227283e+00
   57        8.892208e-01
   58       -1.845603e-01
   59        2.475786e-01
   60       -2.687094e-01
   61       -2.948885e+00
   62        5.140988e-01
   63        1.176969e+00
   64       -7.257192e-01
   65        8.545507e-01
   66        9.136763e-01
   67       -1.151379e+00
   68        6.182663e-01
   69        4.660378e-01
   70        1.457244e+00
   71        8.533276e-01
   72        1.259410e+00
   73        2.648177e-01
   74       -8.468377e-01
   75        1.285701e+00
   76       -1.558947e+00
   77        2.014201e+00
   78        3.671738e-01
   79       -8.029799e-02
   80        5.731312e-01
   81       -1.135621e+00
   82       -9.569921e-01
   83        1.905442e+00
   84       -6.125702e-01
   85        1.282398e+00
   86        2.188429e+00
   87        1.353699e+00
   88       -6.790383e-01
   89        5.561251e-01
   90       -1.316008e-01
   91        1.664164e-01
   92       -1.559544e+00
   93       -1.792311e-01
   94        1.200663e+00
   95       -2.623515e-03
   96        3.515592e-02
   97        1.988007e+00
   98       -1.329434e-01
   99       -8.505643e-03
  100        6.478429e-01
;
param outliervec:=
    1    1
    2    1
    3    1
    4    0
    5    0
    6    1
    7    1
    8    1
    9    1
   10    1
   11    1
   12    1
   13    1
   14    1
   15    1
   16    1
   17    1
   18    0
   19    1
   20    0
   21    1
   22    1
   23    1
   24    1
   25    1
   26    1
   27    1
   28    1
   29    0
   30    1
   31    1
   32    1
   33    1
   34    1
   35    1
   36    1
   37    1
   38    1
   39    1
   40    1
   41    0
   42    1
   43    1
   44    0
   45    1
   46    1
   47    1
   48    0
   49    1
   50    1
   51    1
   52    0
   53    0
   54    0
   55    1
   56    0
   57    0
   58    1
   59    1
   60    1
   61    0
   62    1
   63    1
   64    1
   65    1
   66    1
   67    0
   68    1
   69    0
   70    1
   71    1
   72    1
   73    1
   74    1
   75    1
   76    0
   77    1
   78    1
   79    1
   80    1
   81    1
   82    1
   83    1
   84    1
   85    0
   86    1
   87    1
   88    1
   89    0
   90    1
   91    0
   92    0
   93    1
   94    1
   95    1
   96    0
   97    1
   98    1
   99    1
  100    1
;